# INITIALISATION

units metal
pair_style eam/alloy

#defaults
dimension 3
boundary p p p
atom_style atomic

# ATOM DEFINITION

lattice fcc 3.615

variable x equal 20
variable y equal 20
variable z equal 20

region simbox block 0 $x 0 $y 0 $z
create_box 1 simbox
create_atoms 1 box

# SETTINGS

pair_coeff * * /data/ashley/wills_thesis/cu_potential/cuMishinAlloy Cu
velocity all create 300.0 62974 dist gaussian
fix 1 all nvt temp 300.0 300.0 0.1

dump myDump all atom 10000 uncompressed_300K.atom

#defaults
timestep 0.001

# RUN

# thermalisng for 10 ps
run 10000

